c User generated cnf file
p cnf 12 29
12 12 -9 0 
7 -9 11 0 
-12 10 9 0 
12 -7 2 0 
10 -5 9 0 
-2 3 6 0 
-11 12 12 0 
3 7 -4 0 
1 -5 8 0 
12 11 -8 0 
5 -3 9 0 
-1 8 6 0 
3 5 -12 0 
-1 10 7 0 
4 -3 4 0 
12 7 -11 0 
-10 7 4 0 
8 8 -4 0 
-3 2 1 0 
-5 5 10 0 
9 11 -1 0 
-6 6 5 0 
-10 2 1 0 
-4 7 6 0 
12 11 -9 0 
2 -11 3 0 
9 -8 12 0 
11 -8 7 0 
-7 6 2 0 
